p tw 24 36
1 4
1 6
1 11
2 7
2 16
2 18
3 9
3 13
3 24
4 6
4 7
5 9
5 10
5 20
6 15
7 16
8 10
8 12
8 19
9 12
10 17
11 19
11 24
12 23
13 14
13 16
14 21
14 22
15 23
15 24
17 18
17 20
18 22
19 20
21 22
21 23
